33D32945 STP File, STP Format Version 1.0

SECTION Comment
Name 	 "n200_l3.0_rand-graph"
Creator 	"Indaco Biazzo"
Remark
END

SECTION Graph
Nodes 200
Edges 1616
E 1 182 2.000000
E 1 131 2.000000
E 1 101 2.000000
E 1 134 1.000000
E 1 71 4.000000
E 1 171 4.000000
E 1 88 2.000000
E 1 14 1.000000
E 1 176 2.000000
E 1 145 1.000000
E 1 18 1.000000
E 1 85 4.000000
E 1 118 4.000000
E 1 24 1.000000
E 1 32 4.000000
E 2 33 2.000000
E 2 129 2.000000
E 2 181 1.000000
E 2 133 4.000000
E 2 147 2.000000
E 2 104 4.000000
E 2 178 4.000000
E 2 197 1.000000
E 2 142 4.000000
E 2 82 4.000000
E 2 51 4.000000
E 2 53 2.000000
E 2 86 1.000000
E 2 151 1.000000
E 2 21 1.000000
E 2 189 4.000000
E 2 158 1.000000
E 3 178 2.000000
E 3 75 4.000000
E 3 12 1.000000
E 3 45 2.000000
E 3 176 2.000000
E 3 112 1.000000
E 3 17 2.000000
E 3 50 4.000000
E 3 126 1.000000
E 3 180 1.000000
E 3 22 2.000000
E 3 190 1.000000
E 3 128 2.000000
E 3 60 4.000000
E 3 94 2.000000
E 3 31 2.000000
E 3 118 4.000000
E 4 97 1.000000
E 4 195 2.000000
E 4 8 2.000000
E 4 43 2.000000
E 4 115 1.000000
E 4 48 4.000000
E 4 145 1.000000
E 4 19 1.000000
E 4 180 4.000000
E 4 22 4.000000
E 4 185 2.000000
E 4 59 2.000000
E 4 188 1.000000
E 4 171 1.000000
E 5 65 2.000000
E 5 67 1.000000
E 5 37 1.000000
E 5 166 2.000000
E 5 107 1.000000
E 5 176 2.000000
E 5 19 4.000000
E 5 184 4.000000
E 5 62 2.000000
E 6 129 2.000000
E 6 135 2.000000
E 6 103 1.000000
E 6 104 4.000000
E 6 74 2.000000
E 6 107 1.000000
E 6 45 1.000000
E 6 17 2.000000
E 6 109 2.000000
E 6 84 2.000000
E 6 53 4.000000
E 6 54 4.000000
E 6 55 1.000000
E 6 184 2.000000
E 6 154 4.000000
E 6 186 2.000000
E 6 30 2.000000
E 6 95 1.000000
E 7 163 2.000000
E 7 166 2.000000
E 7 40 2.000000
E 7 171 2.000000
E 7 120 2.000000
E 7 175 2.000000
E 7 81 2.000000
E 7 84 1.000000
E 7 181 2.000000
E 7 22 4.000000
E 7 183 2.000000
E 7 24 1.000000
E 7 155 1.000000
E 7 28 2.000000
E 7 157 1.000000
E 7 168 1.000000
E 8 97 1.000000
E 8 71 2.000000
E 8 72 4.000000
E 8 107 2.000000
E 8 168 2.000000
E 8 111 2.000000
E 8 112 2.000000
E 8 49 2.000000
E 8 146 4.000000
E 8 147 4.000000
E 8 191 4.000000
E 8 88 2.000000
E 8 123 2.000000
E 8 60 4.000000
E 8 30 1.000000
E 8 159 1.000000
E 8 192 2.000000
E 9 97 4.000000
E 9 99 2.000000
E 9 104 2.000000
E 9 41 4.000000
E 9 42 2.000000
E 9 43 4.000000
E 9 128 4.000000
E 9 45 2.000000
E 9 142 4.000000
E 9 77 4.000000
E 9 83 4.000000
E 9 56 1.000000
E 9 123 4.000000
E 9 96 4.000000
E 9 152 4.000000
E 9 190 4.000000
E 9 64 1.000000
E 10 129 4.000000
E 10 38 1.000000
E 10 173 2.000000
E 10 45 4.000000
E 10 114 1.000000
E 10 179 2.000000
E 10 181 1.000000
E 10 188 1.000000
E 10 94 1.000000
E 10 159 1.000000
E 11 161 4.000000
E 11 35 4.000000
E 11 102 2.000000
E 11 176 4.000000
E 11 144 4.000000
E 11 184 2.000000
E 11 154 2.000000
E 11 59 4.000000
E 11 112 2.000000
E 11 62 1.000000
E 12 98 2.000000
E 12 101 2.000000
E 12 70 2.000000
E 12 199 1.000000
E 12 107 2.000000
E 12 143 4.000000
E 12 16 4.000000
E 12 81 2.000000
E 12 147 1.000000
E 12 84 2.000000
E 12 85 1.000000
E 12 121 1.000000
E 12 186 1.000000
E 12 91 2.000000
E 12 96 4.000000
E 12 125 2.000000
E 12 32 1.000000
E 13 193 4.000000
E 13 101 2.000000
E 13 103 2.000000
E 13 110 1.000000
E 13 79 2.000000
E 13 142 2.000000
E 13 178 4.000000
E 13 147 2.000000
E 13 118 2.000000
E 13 184 2.000000
E 13 187 2.000000
E 13 158 4.000000
E 13 96 4.000000
E 14 189 4.000000
E 14 68 2.000000
E 14 133 4.000000
E 14 146 4.000000
E 14 157 4.000000
E 14 120 4.000000
E 14 110 1.000000
E 14 16 4.000000
E 14 121 4.000000
E 14 115 1.000000
E 14 20 1.000000
E 14 174 1.000000
E 14 56 4.000000
E 14 57 2.000000
E 14 186 1.000000
E 14 59 1.000000
E 14 61 1.000000
E 14 168 1.000000
E 15 189 4.000000
E 15 37 4.000000
E 15 73 1.000000
E 15 125 4.000000
E 15 115 4.000000
E 15 59 1.000000
E 15 197 2.000000
E 15 27 2.000000
E 15 61 4.000000
E 15 91 4.000000
E 15 95 1.000000
E 15 96 1.000000
E 16 34 4.000000
E 16 197 2.000000
E 16 135 2.000000
E 16 194 4.000000
E 16 170 4.000000
E 16 82 4.000000
E 16 22 1.000000
E 16 23 1.000000
E 16 121 4.000000
E 16 189 1.000000
E 16 62 2.000000
E 16 150 4.000000
E 17 97 2.000000
E 17 100 2.000000
E 17 165 1.000000
E 17 39 1.000000
E 17 72 2.000000
E 17 74 4.000000
E 17 44 4.000000
E 17 99 1.000000
E 17 18 4.000000
E 17 19 2.000000
E 17 196 2.000000
E 17 184 2.000000
E 17 198 2.000000
E 17 187 2.000000
E 17 92 1.000000
E 17 61 4.000000
E 17 168 4.000000
E 17 31 2.000000
E 17 147 4.000000
E 18 99 4.000000
E 18 68 1.000000
E 18 69 4.000000
E 18 134 4.000000
E 18 196 2.000000
E 18 168 2.000000
E 18 75 2.000000
E 18 108 1.000000
E 18 195 2.000000
E 18 112 1.000000
E 18 148 4.000000
E 18 85 1.000000
E 18 183 2.000000
E 18 149 2.000000
E 18 121 4.000000
E 18 101 4.000000
E 18 189 2.000000
E 18 63 2.000000
E 18 166 1.000000
E 19 66 1.000000
E 19 137 1.000000
E 19 83 4.000000
E 19 52 1.000000
E 19 53 1.000000
E 19 86 2.000000
E 19 23 2.000000
E 19 152 1.000000
E 19 25 4.000000
E 19 30 1.000000
E 20 199 2.000000
E 20 133 2.000000
E 20 70 2.000000
E 20 39 1.000000
E 20 197 1.000000
E 20 172 2.000000
E 20 47 4.000000
E 20 112 2.000000
E 20 142 4.000000
E 20 174 4.000000
E 20 53 1.000000
E 20 118 4.000000
E 20 56 2.000000
E 20 90 2.000000
E 20 92 2.000000
E 20 189 4.000000
E 20 158 2.000000
E 20 186 1.000000
E 20 102 4.000000
E 21 167 1.000000
E 21 39 1.000000
E 21 105 4.000000
E 21 25 1.000000
E 21 27 1.000000
E 21 156 2.000000
E 21 127 4.000000
E 22 133 2.000000
E 22 166 4.000000
E 22 191 2.000000
E 22 78 2.000000
E 22 158 2.000000
E 22 116 1.000000
E 22 54 1.000000
E 22 56 4.000000
E 22 122 4.000000
E 22 28 1.000000
E 22 189 2.000000
E 22 30 2.000000
E 22 127 2.000000
E 22 32 2.000000
E 23 98 1.000000
E 23 135 2.000000
E 23 72 4.000000
E 23 130 1.000000
E 23 139 4.000000
E 23 200 2.000000
E 23 191 1.000000
E 23 46 4.000000
E 23 78 1.000000
E 23 50 4.000000
E 23 117 2.000000
E 23 182 4.000000
E 23 119 4.000000
E 23 152 2.000000
E 23 169 2.000000
E 23 61 4.000000
E 23 30 1.000000
E 23 159 1.000000
E 23 64 1.000000
E 24 38 4.000000
E 24 39 1.000000
E 24 75 1.000000
E 24 174 2.000000
E 24 183 2.000000
E 24 120 2.000000
E 24 60 2.000000
E 24 123 1.000000
E 25 124 1.000000
E 25 133 1.000000
E 25 140 1.000000
E 25 47 4.000000
E 25 176 4.000000
E 25 172 1.000000
E 25 56 2.000000
E 25 28 1.000000
E 25 62 2.000000
E 25 192 4.000000
E 26 33 2.000000
E 26 66 4.000000
E 26 99 2.000000
E 26 140 1.000000
E 26 148 2.000000
E 26 134 2.000000
E 26 39 2.000000
E 26 98 1.000000
E 26 74 2.000000
E 26 75 2.000000
E 26 44 4.000000
E 26 79 2.000000
E 26 84 1.000000
E 26 53 1.000000
E 26 182 1.000000
E 26 87 2.000000
E 26 164 1.000000
E 26 127 1.000000
E 26 160 2.000000
E 27 194 1.000000
E 27 36 1.000000
E 27 133 1.000000
E 27 71 4.000000
E 27 173 4.000000
E 27 171 4.000000
E 27 77 2.000000
E 27 47 2.000000
E 27 50 4.000000
E 27 88 2.000000
E 27 92 2.000000
E 27 61 4.000000
E 27 190 2.000000
E 27 159 2.000000
E 27 54 2.000000
E 28 161 2.000000
E 28 99 1.000000
E 28 103 1.000000
E 28 178 4.000000
E 28 42 2.000000
E 28 171 4.000000
E 28 111 2.000000
E 28 48 4.000000
E 28 89 1.000000
E 28 51 1.000000
E 28 148 4.000000
E 28 124 1.000000
E 28 167 2.000000
E 28 62 1.000000
E 28 127 2.000000
E 28 128 2.000000
E 29 148 4.000000
E 29 166 4.000000
E 29 71 4.000000
E 29 43 2.000000
E 29 192 4.000000
E 29 114 1.000000
E 29 52 2.000000
E 29 85 2.000000
E 29 87 2.000000
E 29 152 1.000000
E 29 149 1.000000
E 29 156 2.000000
E 29 126 2.000000
E 29 167 2.000000
E 30 132 4.000000
E 30 135 2.000000
E 30 141 1.000000
E 30 158 2.000000
E 30 159 1.000000
E 30 42 4.000000
E 30 49 1.000000
E 30 186 2.000000
E 30 187 4.000000
E 30 62 4.000000
E 30 75 2.000000
E 30 79 2.000000
E 30 89 4.000000
E 30 90 4.000000
E 30 92 4.000000
E 30 98 4.000000
E 30 102 1.000000
E 31 193 4.000000
E 31 81 4.000000
E 31 69 2.000000
E 31 135 2.000000
E 31 130 4.000000
E 31 99 4.000000
E 31 176 4.000000
E 31 180 1.000000
E 31 117 1.000000
E 31 122 2.000000
E 31 125 2.000000
E 32 113 1.000000
E 32 182 4.000000
E 32 36 4.000000
E 32 101 2.000000
E 32 102 4.000000
E 32 166 1.000000
E 32 46 4.000000
E 32 81 1.000000
E 32 146 1.000000
E 32 121 2.000000
E 32 161 4.000000
E 32 93 2.000000
E 32 160 4.000000
E 33 193 4.000000
E 33 68 2.000000
E 33 102 4.000000
E 33 71 4.000000
E 33 72 2.000000
E 33 130 4.000000
E 33 75 4.000000
E 33 110 2.000000
E 33 47 1.000000
E 33 51 2.000000
E 33 185 2.000000
E 33 187 4.000000
E 33 60 1.000000
E 33 189 1.000000
E 33 94 1.000000
E 33 95 1.000000
E 33 128 2.000000
E 34 139 1.000000
E 34 196 2.000000
E 34 154 2.000000
E 34 156 1.000000
E 34 49 2.000000
E 34 36 2.000000
E 34 38 1.000000
E 34 39 4.000000
E 34 40 2.000000
E 34 41 4.000000
E 34 48 4.000000
E 34 177 1.000000
E 34 51 4.000000
E 34 53 2.000000
E 34 183 4.000000
E 34 61 1.000000
E 34 68 4.000000
E 34 79 2.000000
E 34 83 1.000000
E 34 111 2.000000
E 34 169 4.000000
E 34 117 1.000000
E 34 126 2.000000
E 35 194 1.000000
E 35 36 1.000000
E 35 199 4.000000
E 35 169 2.000000
E 35 44 2.000000
E 35 139 4.000000
E 35 159 1.000000
E 35 80 4.000000
E 35 146 4.000000
E 35 92 4.000000
E 35 68 4.000000
E 35 95 2.000000
E 35 55 1.000000
E 35 122 4.000000
E 35 60 2.000000
E 35 75 4.000000
E 35 63 4.000000
E 36 108 1.000000
E 36 68 2.000000
E 36 69 2.000000
E 36 140 1.000000
E 36 147 2.000000
E 36 42 2.000000
E 36 107 1.000000
E 36 44 4.000000
E 36 131 4.000000
E 36 113 2.000000
E 36 76 1.000000
E 36 84 2.000000
E 36 53 2.000000
E 36 86 4.000000
E 36 154 1.000000
E 36 153 1.000000
E 36 58 2.000000
E 37 182 1.000000
E 37 176 4.000000
E 37 194 1.000000
E 37 64 2.000000
E 37 140 4.000000
E 37 152 1.000000
E 37 144 1.000000
E 37 181 4.000000
E 37 111 1.000000
E 37 183 4.000000
E 37 106 1.000000
E 37 59 2.000000
E 37 60 1.000000
E 37 125 1.000000
E 37 96 1.000000
E 38 69 4.000000
E 38 143 2.000000
E 38 175 2.000000
E 38 190 2.000000
E 38 118 4.000000
E 38 87 1.000000
E 38 106 1.000000
E 38 188 1.000000
E 38 158 2.000000
E 39 97 4.000000
E 39 149 1.000000
E 39 132 2.000000
E 39 189 4.000000
E 39 139 2.000000
E 39 142 4.000000
E 39 54 2.000000
E 39 183 2.000000
E 39 89 4.000000
E 39 93 4.000000
E 39 118 2.000000
E 40 139 1.000000
E 40 110 1.000000
E 40 80 2.000000
E 40 83 4.000000
E 40 54 2.000000
E 40 186 4.000000
E 40 91 2.000000
E 40 127 1.000000
E 40 182 2.000000
E 41 124 2.000000
E 41 92 1.000000
E 41 150 1.000000
E 41 106 4.000000
E 41 128 2.000000
E 41 77 4.000000
E 41 182 1.000000
E 41 177 4.000000
E 41 84 1.000000
E 41 122 2.000000
E 41 95 2.000000
E 41 56 2.000000
E 41 90 4.000000
E 41 155 1.000000
E 41 60 4.000000
E 41 157 4.000000
E 41 94 2.000000
E 41 63 4.000000
E 41 118 2.000000
E 42 65 4.000000
E 42 72 2.000000
E 42 170 4.000000
E 42 94 4.000000
E 42 100 2.000000
E 42 55 4.000000
E 42 56 4.000000
E 42 57 1.000000
E 42 61 2.000000
E 42 192 1.000000
E 43 166 2.000000
E 43 72 4.000000
E 43 108 1.000000
E 43 77 2.000000
E 43 127 1.000000
E 43 159 2.000000
E 43 48 1.000000
E 43 49 4.000000
E 43 174 4.000000
E 43 191 2.000000
E 43 95 4.000000
E 43 183 4.000000
E 43 90 4.000000
E 43 168 4.000000
E 43 63 2.000000
E 43 150 4.000000
E 44 104 4.000000
E 44 170 2.000000
E 44 168 4.000000
E 44 121 1.000000
E 44 86 4.000000
E 44 57 2.000000
E 44 189 2.000000
E 44 126 2.000000
E 44 127 4.000000
E 44 128 4.000000
E 45 124 4.000000
E 45 71 4.000000
E 45 75 4.000000
E 45 108 1.000000
E 45 77 4.000000
E 45 195 4.000000
E 45 82 2.000000
E 45 83 4.000000
E 45 84 1.000000
E 45 53 4.000000
E 45 55 1.000000
E 45 120 2.000000
E 45 153 2.000000
E 45 60 2.000000
E 45 166 2.000000
E 46 161 1.000000
E 46 67 1.000000
E 46 100 4.000000
E 46 197 1.000000
E 46 73 1.000000
E 46 169 4.000000
E 46 112 4.000000
E 46 113 2.000000
E 46 50 4.000000
E 46 147 2.000000
E 46 191 4.000000
E 46 64 2.000000
E 47 161 4.000000
E 47 195 4.000000
E 47 180 4.000000
E 47 74 4.000000
E 47 121 4.000000
E 47 83 2.000000
E 47 85 1.000000
E 47 150 2.000000
E 47 191 2.000000
E 48 130 1.000000
E 48 131 2.000000
E 48 133 2.000000
E 48 136 2.000000
E 48 166 1.000000
E 48 169 1.000000
E 48 172 2.000000
E 48 49 1.000000
E 48 59 1.000000
E 48 188 4.000000
E 48 65 1.000000
E 48 68 4.000000
E 48 76 4.000000
E 48 78 4.000000
E 48 104 2.000000
E 48 113 1.000000
E 48 114 2.000000
E 48 115 4.000000
E 49 102 2.000000
E 49 169 2.000000
E 49 74 4.000000
E 49 184 2.000000
E 49 114 2.000000
E 49 52 2.000000
E 49 119 2.000000
E 49 88 2.000000
E 49 144 1.000000
E 49 159 1.000000
E 49 198 4.000000
E 50 98 1.000000
E 50 99 2.000000
E 50 69 4.000000
E 50 70 1.000000
E 50 170 1.000000
E 50 111 2.000000
E 50 178 2.000000
E 50 153 2.000000
E 50 187 1.000000
E 51 132 1.000000
E 51 110 2.000000
E 51 196 1.000000
E 51 149 1.000000
E 51 93 4.000000
E 51 191 4.000000
E 52 81 2.000000
E 52 183 4.000000
E 52 168 1.000000
E 52 113 4.000000
E 52 107 4.000000
E 52 112 4.000000
E 52 117 1.000000
E 52 55 4.000000
E 52 89 1.000000
E 52 155 2.000000
E 52 128 2.000000
E 53 129 1.000000
E 53 163 1.000000
E 53 199 4.000000
E 53 74 4.000000
E 53 192 1.000000
E 53 116 4.000000
E 53 86 1.000000
E 53 183 2.000000
E 53 152 4.000000
E 53 96 4.000000
E 53 118 2.000000
E 53 94 4.000000
E 53 70 1.000000
E 54 129 4.000000
E 54 182 4.000000
E 54 131 2.000000
E 54 165 1.000000
E 54 138 4.000000
E 54 179 1.000000
E 54 115 2.000000
E 54 86 2.000000
E 54 151 2.000000
E 54 123 2.000000
E 55 71 1.000000
E 55 195 2.000000
E 55 105 2.000000
E 55 172 4.000000
E 55 142 2.000000
E 55 141 4.000000
E 55 83 2.000000
E 55 149 4.000000
E 55 154 2.000000
E 55 124 2.000000
E 55 135 1.000000
E 56 150 4.000000
E 56 151 4.000000
E 56 159 2.000000
E 56 168 1.000000
E 56 175 1.000000
E 56 176 2.000000
E 56 177 1.000000
E 56 178 4.000000
E 56 184 2.000000
E 56 58 1.000000
E 56 84 4.000000
E 56 98 1.000000
E 56 99 4.000000
E 56 100 1.000000
E 56 107 2.000000
E 56 122 2.000000
E 56 128 2.000000
E 56 127 1.000000
E 57 68 4.000000
E 57 200 2.000000
E 57 82 4.000000
E 57 84 1.000000
E 57 150 1.000000
E 57 106 4.000000
E 57 89 1.000000
E 57 90 1.000000
E 57 59 4.000000
E 57 125 2.000000
E 57 154 1.000000
E 58 65 2.000000
E 58 129 2.000000
E 58 163 4.000000
E 58 70 2.000000
E 58 167 1.000000
E 58 178 2.000000
E 58 195 4.000000
E 58 193 4.000000
E 58 179 1.000000
E 58 79 2.000000
E 58 81 1.000000
E 58 121 4.000000
E 58 92 1.000000
E 58 175 2.000000
E 58 119 4.000000
E 58 89 2.000000
E 58 60 4.000000
E 58 95 2.000000
E 59 193 2.000000
E 59 66 4.000000
E 59 194 1.000000
E 59 105 4.000000
E 59 109 4.000000
E 59 121 1.000000
E 59 90 4.000000
E 59 110 1.000000
E 60 130 1.000000
E 60 68 2.000000
E 60 70 4.000000
E 60 106 2.000000
E 60 88 2.000000
E 60 162 1.000000
E 60 177 2.000000
E 60 183 2.000000
E 60 152 4.000000
E 60 62 4.000000
E 60 159 1.000000
E 61 137 1.000000
E 61 196 1.000000
E 61 155 1.000000
E 61 158 4.000000
E 61 159 2.000000
E 61 175 4.000000
E 61 176 4.000000
E 61 177 2.000000
E 61 191 1.000000
E 61 192 1.000000
E 61 194 2.000000
E 61 68 2.000000
E 61 198 1.000000
E 61 83 4.000000
E 61 91 1.000000
E 61 145 1.000000
E 61 107 2.000000
E 61 108 2.000000
E 61 122 4.000000
E 61 127 2.000000
E 62 98 4.000000
E 62 131 2.000000
E 62 170 1.000000
E 62 132 4.000000
E 62 148 2.000000
E 62 155 4.000000
E 62 127 1.000000
E 63 66 4.000000
E 63 103 2.000000
E 63 72 1.000000
E 63 173 1.000000
E 63 139 2.000000
E 63 142 2.000000
E 63 79 1.000000
E 63 112 4.000000
E 63 182 2.000000
E 63 87 4.000000
E 63 120 2.000000
E 63 105 4.000000
E 63 156 1.000000
E 63 75 1.000000
E 63 191 1.000000
E 64 129 2.000000
E 64 134 1.000000
E 64 138 4.000000
E 64 196 1.000000
E 64 168 4.000000
E 64 176 1.000000
E 64 177 4.000000
E 64 182 2.000000
E 64 185 2.000000
E 64 186 2.000000
E 64 188 2.000000
E 64 193 1.000000
E 64 68 1.000000
E 64 74 2.000000
E 64 86 2.000000
E 64 90 1.000000
E 64 94 1.000000
E 64 107 1.000000
E 64 112 4.000000
E 64 116 4.000000
E 64 120 4.000000
E 64 122 4.000000
E 65 164 1.000000
E 65 166 1.000000
E 65 109 4.000000
E 65 178 2.000000
E 65 148 1.000000
E 65 187 1.000000
E 65 92 4.000000
E 65 96 1.000000
E 66 99 2.000000
E 66 132 1.000000
E 66 170 2.000000
E 66 142 4.000000
E 66 175 4.000000
E 66 144 4.000000
E 66 81 1.000000
E 66 152 4.000000
E 66 157 4.000000
E 67 143 1.000000
E 67 120 2.000000
E 67 197 4.000000
E 67 187 1.000000
E 67 92 1.000000
E 67 157 2.000000
E 67 126 2.000000
E 68 103 2.000000
E 68 136 4.000000
E 68 93 2.000000
E 68 172 2.000000
E 68 78 2.000000
E 68 132 4.000000
E 68 138 2.000000
E 68 186 4.000000
E 69 130 4.000000
E 69 195 4.000000
E 69 169 4.000000
E 69 76 4.000000
E 69 179 1.000000
E 69 175 4.000000
E 69 144 2.000000
E 69 83 2.000000
E 69 196 2.000000
E 69 184 2.000000
E 69 156 4.000000
E 69 190 2.000000
E 70 129 4.000000
E 70 162 2.000000
E 70 76 1.000000
E 70 133 2.000000
E 70 72 4.000000
E 70 110 1.000000
E 70 143 2.000000
E 70 112 2.000000
E 70 83 1.000000
E 70 127 1.000000
E 71 156 2.000000
E 71 120 4.000000
E 71 110 1.000000
E 71 80 4.000000
E 71 113 2.000000
E 71 178 1.000000
E 71 83 1.000000
E 71 180 4.000000
E 71 88 4.000000
E 71 92 4.000000
E 72 135 1.000000
E 72 137 2.000000
E 72 178 1.000000
E 72 146 1.000000
E 72 147 1.000000
E 72 148 4.000000
E 72 181 4.000000
E 72 187 1.000000
E 72 169 4.000000
E 72 198 2.000000
E 73 130 4.000000
E 73 99 1.000000
E 73 133 4.000000
E 73 103 2.000000
E 73 104 1.000000
E 73 105 4.000000
E 73 140 4.000000
E 73 145 2.000000
E 73 146 1.000000
E 73 163 1.000000
E 73 186 2.000000
E 74 165 1.000000
E 74 101 1.000000
E 74 81 2.000000
E 74 139 1.000000
E 74 140 2.000000
E 74 77 1.000000
E 74 172 1.000000
E 74 111 2.000000
E 74 184 2.000000
E 74 177 2.000000
E 74 94 1.000000
E 75 196 4.000000
E 75 146 4.000000
E 75 178 2.000000
E 75 107 4.000000
E 75 172 4.000000
E 75 94 1.000000
E 75 123 4.000000
E 75 91 2.000000
E 76 130 2.000000
E 76 138 2.000000
E 76 77 4.000000
E 76 86 2.000000
E 76 119 4.000000
E 77 129 1.000000
E 77 147 1.000000
E 77 84 2.000000
E 77 170 4.000000
E 77 156 1.000000
E 77 94 4.000000
E 77 127 1.000000
E 78 163 1.000000
E 78 135 4.000000
E 78 103 1.000000
E 78 136 2.000000
E 78 140 2.000000
E 78 110 4.000000
E 78 184 4.000000
E 78 153 1.000000
E 78 167 1.000000
E 78 95 1.000000
E 78 160 4.000000
E 79 103 4.000000
E 79 168 2.000000
E 79 106 1.000000
E 79 145 2.000000
E 79 142 2.000000
E 79 81 1.000000
E 79 189 2.000000
E 79 149 4.000000
E 79 138 4.000000
E 79 157 4.000000
E 80 166 1.000000
E 80 103 2.000000
E 80 169 4.000000
E 80 173 1.000000
E 80 155 1.000000
E 81 84 1.000000
E 81 186 2.000000
E 81 142 2.000000
E 81 179 4.000000
E 81 117 4.000000
E 81 90 2.000000
E 81 155 4.000000
E 81 124 1.000000
E 82 98 1.000000
E 82 106 2.000000
E 82 145 2.000000
E 82 177 2.000000
E 82 110 4.000000
E 82 111 1.000000
E 82 113 4.000000
E 82 174 4.000000
E 82 179 1.000000
E 82 120 2.000000
E 82 122 1.000000
E 82 189 4.000000
E 82 154 2.000000
E 83 129 1.000000
E 83 138 4.000000
E 83 139 2.000000
E 83 141 1.000000
E 83 144 2.000000
E 83 158 1.000000
E 83 160 1.000000
E 83 172 2.000000
E 83 173 2.000000
E 83 188 1.000000
E 83 89 4.000000
E 83 123 4.000000
E 83 125 2.000000
E 83 128 2.000000
E 84 130 2.000000
E 84 137 4.000000
E 84 173 4.000000
E 84 150 4.000000
E 84 158 2.000000
E 84 160 2.000000
E 84 171 1.000000
E 84 183 4.000000
E 84 187 2.000000
E 84 93 4.000000
E 84 95 2.000000
E 84 99 2.000000
E 84 100 1.000000
E 84 120 2.000000
E 85 162 4.000000
E 85 108 1.000000
E 85 101 1.000000
E 85 178 2.000000
E 85 107 1.000000
E 85 158 4.000000
E 85 181 1.000000
E 85 176 4.000000
E 85 139 4.000000
E 86 132 1.000000
E 86 138 2.000000
E 86 141 2.000000
E 86 143 4.000000
E 86 154 4.000000
E 86 157 2.000000
E 86 162 4.000000
E 86 171 4.000000
E 86 181 1.000000
E 86 195 1.000000
E 86 164 2.000000
E 86 87 4.000000
E 86 96 4.000000
E 86 101 4.000000
E 86 103 1.000000
E 86 118 1.000000
E 87 193 1.000000
E 87 163 2.000000
E 87 141 4.000000
E 87 172 1.000000
E 87 109 2.000000
E 87 183 2.000000
E 87 90 2.000000
E 87 94 1.000000
E 88 113 2.000000
E 88 124 1.000000
E 88 133 1.000000
E 88 102 2.000000
E 88 107 1.000000
E 88 108 2.000000
E 88 132 2.000000
E 88 181 2.000000
E 88 150 1.000000
E 88 189 4.000000
E 88 139 2.000000
E 88 199 4.000000
E 89 97 1.000000
E 89 156 2.000000
E 89 197 1.000000
E 89 136 4.000000
E 89 108 1.000000
E 89 175 4.000000
E 89 112 4.000000
E 89 158 2.000000
E 89 178 1.000000
E 89 181 4.000000
E 89 150 4.000000
E 89 96 4.000000
E 90 98 4.000000
E 90 165 4.000000
E 90 171 2.000000
E 90 130 2.000000
E 90 106 4.000000
E 90 143 1.000000
E 90 94 1.000000
E 90 178 1.000000
E 90 147 1.000000
E 90 91 4.000000
E 90 138 1.000000
E 90 128 1.000000
E 91 97 1.000000
E 91 99 2.000000
E 91 108 4.000000
E 91 135 2.000000
E 91 145 4.000000
E 92 145 4.000000
E 92 151 4.000000
E 92 161 2.000000
E 92 168 2.000000
E 92 174 2.000000
E 92 181 4.000000
E 92 182 4.000000
E 92 185 1.000000
E 92 187 2.000000
E 92 192 4.000000
E 92 97 2.000000
E 92 108 4.000000
E 92 119 4.000000
E 93 134 4.000000
E 93 130 4.000000
E 93 102 2.000000
E 93 109 2.000000
E 93 196 4.000000
E 93 175 2.000000
E 93 112 2.000000
E 93 181 1.000000
E 93 182 2.000000
E 93 152 2.000000
E 93 180 1.000000
E 93 176 2.000000
E 93 166 1.000000
E 94 129 4.000000
E 94 100 1.000000
E 94 199 4.000000
E 94 99 1.000000
E 94 111 4.000000
E 94 174 4.000000
E 94 126 2.000000
E 94 151 1.000000
E 95 166 1.000000
E 95 133 2.000000
E 95 118 2.000000
E 95 151 1.000000
E 95 125 4.000000
E 95 158 2.000000
E 95 102 1.000000
E 96 108 2.000000
E 96 142 1.000000
E 96 154 4.000000
E 96 123 2.000000
E 96 156 1.000000
E 97 106 2.000000
E 97 140 2.000000
E 97 115 1.000000
E 97 119 2.000000
E 97 186 1.000000
E 97 122 1.000000
E 97 157 1.000000
E 97 168 4.000000
E 98 129 1.000000
E 98 99 2.000000
E 98 108 4.000000
E 98 106 4.000000
E 98 139 2.000000
E 98 179 4.000000
E 98 147 2.000000
E 98 155 2.000000
E 98 104 1.000000
E 98 170 4.000000
E 99 193 4.000000
E 99 138 1.000000
E 99 141 2.000000
E 99 111 1.000000
E 100 177 4.000000
E 100 195 1.000000
E 100 164 1.000000
E 100 102 2.000000
E 100 200 1.000000
E 100 143 2.000000
E 100 149 1.000000
E 100 182 4.000000
E 100 151 1.000000
E 100 121 1.000000
E 100 123 2.000000
E 101 195 4.000000
E 101 164 4.000000
E 101 146 4.000000
E 101 143 1.000000
E 101 175 2.000000
E 101 113 2.000000
E 101 181 1.000000
E 101 154 2.000000
E 101 185 4.000000
E 101 122 1.000000
E 101 160 2.000000
E 102 137 1.000000
E 102 155 1.000000
E 102 158 4.000000
E 102 166 4.000000
E 102 183 1.000000
E 102 185 1.000000
E 102 187 2.000000
E 102 161 2.000000
E 102 197 2.000000
E 102 198 2.000000
E 102 107 2.000000
E 102 115 1.000000
E 103 176 4.000000
E 103 124 4.000000
E 103 123 4.000000
E 104 133 4.000000
E 104 152 4.000000
E 104 153 4.000000
E 104 155 2.000000
E 104 185 1.000000
E 104 125 1.000000
E 104 134 2.000000
E 105 197 2.000000
E 105 110 4.000000
E 105 175 1.000000
E 105 112 2.000000
E 105 146 1.000000
E 105 116 1.000000
E 105 121 2.000000
E 105 160 4.000000
E 106 114 4.000000
E 106 146 4.000000
E 106 169 2.000000
E 106 152 2.000000
E 106 116 4.000000
E 106 148 4.000000
E 106 120 1.000000
E 106 192 4.000000
E 107 137 4.000000
E 107 138 4.000000
E 107 174 2.000000
E 107 184 2.000000
E 107 132 1.000000
E 107 168 1.000000
E 108 129 1.000000
E 108 149 1.000000
E 108 160 1.000000
E 109 162 4.000000
E 109 194 2.000000
E 109 143 1.000000
E 109 185 4.000000
E 109 148 1.000000
E 109 118 2.000000
E 109 153 2.000000
E 109 182 1.000000
E 110 194 4.000000
E 110 195 2.000000
E 110 200 2.000000
E 110 150 4.000000
E 110 151 2.000000
E 110 185 4.000000
E 111 164 4.000000
E 111 168 2.000000
E 111 145 1.000000
E 111 150 4.000000
E 111 157 2.000000
E 111 192 2.000000
E 112 142 2.000000
E 112 152 1.000000
E 112 162 2.000000
E 112 165 1.000000
E 112 189 2.000000
E 112 196 1.000000
E 112 197 1.000000
E 112 117 4.000000
E 112 120 1.000000
E 113 199 1.000000
E 113 167 1.000000
E 113 138 4.000000
E 113 180 4.000000
E 113 148 4.000000
E 113 133 2.000000
E 113 123 2.000000
E 113 176 2.000000
E 113 158 4.000000
E 113 170 4.000000
E 114 177 4.000000
E 114 125 1.000000
E 114 150 2.000000
E 114 183 4.000000
E 114 120 1.000000
E 114 155 2.000000
E 114 126 1.000000
E 115 195 4.000000
E 115 141 2.000000
E 115 145 1.000000
E 115 174 4.000000
E 115 132 4.000000
E 115 184 2.000000
E 116 162 4.000000
E 116 195 2.000000
E 116 168 2.000000
E 116 180 2.000000
E 116 183 4.000000
E 117 166 4.000000
E 117 141 2.000000
E 117 142 2.000000
E 117 146 2.000000
E 117 182 4.000000
E 117 152 4.000000
E 118 178 2.000000
E 118 120 2.000000
E 118 121 4.000000
E 119 168 2.000000
E 119 171 1.000000
E 119 180 1.000000
E 119 189 4.000000
E 120 168 4.000000
E 120 178 1.000000
E 120 122 4.000000
E 120 156 1.000000
E 120 191 1.000000
E 121 165 2.000000
E 121 164 4.000000
E 121 135 2.000000
E 121 159 2.000000
E 121 137 2.000000
E 121 168 1.000000
E 121 128 2.000000
E 121 158 1.000000
E 121 127 1.000000
E 122 166 1.000000
E 122 189 4.000000
E 122 139 1.000000
E 122 195 4.000000
E 122 176 2.000000
E 122 179 2.000000
E 122 160 4.000000
E 122 184 1.000000
E 123 130 2.000000
E 123 138 2.000000
E 123 176 4.000000
E 123 170 4.000000
E 123 159 2.000000
E 124 196 1.000000
E 124 134 1.000000
E 124 198 2.000000
E 125 130 4.000000
E 125 166 1.000000
E 125 178 4.000000
E 125 147 2.000000
E 125 149 1.000000
E 125 133 1.000000
E 125 158 2.000000
E 125 128 1.000000
E 126 156 4.000000
E 127 182 1.000000
E 127 149 4.000000
E 127 197 2.000000
E 127 128 4.000000
E 128 129 2.000000
E 128 172 2.000000
E 128 169 4.000000
E 128 152 2.000000
E 128 144 2.000000
E 128 159 2.000000
E 128 183 4.000000
E 129 193 1.000000
E 129 131 1.000000
E 129 132 4.000000
E 129 166 2.000000
E 129 195 2.000000
E 129 170 2.000000
E 130 194 4.000000
E 130 200 1.000000
E 130 175 1.000000
E 130 145 4.000000
E 130 179 1.000000
E 130 158 4.000000
E 130 192 1.000000
E 131 190 1.000000
E 132 164 1.000000
E 132 149 4.000000
E 132 153 2.000000
E 132 187 4.000000
E 132 189 4.000000
E 132 196 4.000000
E 133 163 2.000000
E 133 164 2.000000
E 133 195 2.000000
E 133 140 2.000000
E 133 142 1.000000
E 133 184 1.000000
E 134 193 2.000000
E 134 138 1.000000
E 134 200 2.000000
E 134 175 1.000000
E 134 181 4.000000
E 135 169 1.000000
E 135 172 4.000000
E 135 145 4.000000
E 135 185 4.000000
E 135 150 4.000000
E 135 187 2.000000
E 135 176 1.000000
E 135 160 1.000000
E 136 195 2.000000
E 136 145 4.000000
E 136 146 2.000000
E 136 149 2.000000
E 136 174 4.000000
E 136 154 4.000000
E 136 188 2.000000
E 137 162 4.000000
E 137 170 2.000000
E 137 185 4.000000
E 137 154 1.000000
E 137 156 4.000000
E 137 198 1.000000
E 138 143 4.000000
E 138 153 4.000000
E 138 192 4.000000
E 139 171 4.000000
E 139 149 1.000000
E 139 176 1.000000
E 139 187 2.000000
E 140 196 1.000000
E 140 200 4.000000
E 140 195 1.000000
E 140 180 2.000000
E 140 182 1.000000
E 141 174 2.000000
E 141 181 4.000000
E 141 188 1.000000
E 141 183 2.000000
E 142 195 1.000000
E 142 190 2.000000
E 142 147 2.000000
E 142 191 1.000000
E 142 157 4.000000
E 142 158 1.000000
E 143 199 1.000000
E 143 172 4.000000
E 143 163 1.000000
E 143 145 2.000000
E 143 159 4.000000
E 144 194 1.000000
E 144 175 4.000000
E 144 180 1.000000
E 144 189 2.000000
E 145 163 2.000000
E 145 188 4.000000
E 145 151 4.000000
E 145 187 2.000000
E 145 191 1.000000
E 146 166 4.000000
E 146 167 4.000000
E 146 148 4.000000
E 146 152 4.000000
E 146 158 4.000000
E 146 191 1.000000
E 147 169 4.000000
E 147 149 2.000000
E 147 172 2.000000
E 147 156 2.000000
E 147 155 4.000000
E 147 200 4.000000
E 148 162 1.000000
E 148 194 4.000000
E 148 174 2.000000
E 149 195 1.000000
E 149 175 2.000000
E 149 152 2.000000
E 149 153 2.000000
E 149 155 2.000000
E 150 192 4.000000
E 150 175 1.000000
E 150 155 2.000000
E 150 156 2.000000
E 150 182 1.000000
E 151 162 2.000000
E 151 171 2.000000
E 151 184 4.000000
E 151 159 2.000000
E 151 196 1.000000
E 151 153 1.000000
E 151 189 4.000000
E 152 178 4.000000
E 152 154 1.000000
E 152 155 2.000000
E 152 190 4.000000
E 153 180 2.000000
E 153 181 4.000000
E 153 170 4.000000
E 153 186 2.000000
E 153 159 4.000000
E 153 183 1.000000
E 154 198 1.000000
E 155 199 1.000000
E 155 165 1.000000
E 155 175 2.000000
E 155 190 4.000000
E 155 181 4.000000
E 156 161 2.000000
E 156 194 4.000000
E 156 173 4.000000
E 156 182 2.000000
E 156 187 1.000000
E 157 164 2.000000
E 157 171 4.000000
E 157 161 1.000000
E 158 164 1.000000
E 158 170 1.000000
E 158 180 2.000000
E 158 196 1.000000
E 158 199 1.000000
E 158 166 1.000000
E 159 165 4.000000
E 159 183 1.000000
E 159 175 2.000000
E 159 179 1.000000
E 161 197 1.000000
E 161 188 1.000000
E 162 168 2.000000
E 162 190 4.000000
E 162 191 1.000000
E 163 177 2.000000
E 163 178 2.000000
E 163 189 2.000000
E 164 187 2.000000
E 165 200 4.000000
E 166 169 1.000000
E 166 179 2.000000
E 166 186 2.000000
E 166 199 4.000000
E 167 171 1.000000
E 167 180 1.000000
E 167 184 4.000000
E 169 188 2.000000
E 169 198 2.000000
E 169 178 2.000000
E 169 196 4.000000
E 170 174 2.000000
E 171 198 4.000000
E 171 196 2.000000
E 172 175 4.000000
E 174 199 1.000000
E 174 181 2.000000
E 177 193 2.000000
E 177 178 2.000000
E 178 188 1.000000
E 178 197 4.000000
E 179 197 1.000000
E 179 200 1.000000
E 179 182 4.000000
E 182 195 2.000000
E 183 195 4.000000
E 183 188 2.000000
E 185 193 4.000000
E 186 194 1.000000
E 187 200 4.000000
E 187 195 4.000000
E 189 198 2.000000
E 191 195 1.000000
E 192 193 4.000000
E 192 195 1.000000
E 193 199 2.000000
E 193 195 2.000000
E 196 200 4.000000
E 197 200 2.000000
E 198 200 4.000000
END

SECTION Terminals
Terminals 200
TP 1 1.230807
TP 2 0.793925
TP 3 1.003305
TP 4 1.728845
TP 5 2.291043
TP 6 2.258889
TP 7 2.615788
TP 8 1.727196
TP 9 1.660454
TP 10 1.280202
TP 11 0.883800
TP 12 2.238340
TP 13 0.239303
TP 14 1.939853
TP 15 0.517465
TP 16 0.149580
TP 17 1.527418
TP 18 2.194201
TP 19 1.527821
TP 20 2.709526
TP 21 2.477986
TP 22 2.148151
TP 23 2.151756
TP 24 2.482003
TP 25 1.074894
TP 26 2.357959
TP 27 0.080634
TP 28 2.985534
TP 29 0.522429
TP 30 1.217345
TP 31 1.091921
TP 32 0.882551
TP 33 0.272979
TP 34 2.817315
TP 35 2.818089
TP 36 2.782079
TP 37 1.833463
TP 38 0.506336
TP 39 1.900967
TP 40 2.707683
TP 41 0.995953
TP 42 0.247994
TP 43 2.076194
TP 44 2.352143
TP 45 1.264963
TP 46 1.707894
TP 47 2.076681
TP 48 1.569476
TP 49 2.651588
TP 50 0.783529
TP 51 0.558066
TP 52 2.181374
TP 53 2.681159
TP 54 2.881013
TP 55 0.416463
TP 56 1.116637
TP 57 0.691122
TP 58 1.643531
TP 59 0.832191
TP 60 2.093187
TP 61 1.430306
TP 62 2.270674
TP 63 1.906152
TP 64 2.791955
TP 65 1.031624
TP 66 2.157467
TP 67 1.713371
TP 68 1.474471
TP 69 0.824391
TP 70 1.153625
TP 71 2.424553
TP 72 2.025586
TP 73 2.001298
TP 74 1.970258
TP 75 1.204621
TP 76 2.358900
TP 77 2.209319
TP 78 2.612858
TP 79 2.349688
TP 80 1.753114
TP 81 2.238728
TP 82 0.227627
TP 83 2.849718
TP 84 1.150691
TP 85 0.506552
TP 86 0.153027
TP 87 2.021132
TP 88 0.610418
TP 89 2.217981
TP 90 0.984005
TP 91 1.193318
TP 92 1.085922
TP 93 2.305834
TP 94 2.995272
TP 95 2.746440
TP 96 0.223128
TP 97 0.356253
TP 98 1.743826
TP 99 2.482401
TP 100 2.467355
TP 101 1.963106
TP 102 2.557418
TP 103 1.782643
TP 104 1.522080
TP 105 0.059364
TP 106 2.477162
TP 107 0.556401
TP 108 1.004622
TP 109 1.739604
TP 110 0.875507
TP 111 2.852512
TP 112 2.963444
TP 113 0.316161
TP 114 2.467361
TP 115 1.085764
TP 116 1.073057
TP 117 1.095191
TP 118 2.646917
TP 119 0.786315
TP 120 2.703376
TP 121 2.136716
TP 122 0.648157
TP 123 0.042899
TP 124 1.941560
TP 125 1.770230
TP 126 0.518590
TP 127 0.313640
TP 128 2.861407
TP 129 1.344066
TP 130 2.307556
TP 131 0.058734
TP 132 0.807843
TP 133 1.295624
TP 134 1.077062
TP 135 1.845377
TP 136 2.821499
TP 137 1.549702
TP 138 2.770519
TP 139 1.645427
TP 140 2.353334
TP 141 0.637781
TP 142 1.248072
TP 143 1.664140
TP 144 0.220627
TP 145 2.363349
TP 146 0.616035
TP 147 2.887190
TP 148 0.456459
TP 149 1.680568
TP 150 2.820518
TP 151 1.743869
TP 152 1.397183
TP 153 2.437759
TP 154 1.404051
TP 155 1.648601
TP 156 2.453557
TP 157 0.420457
TP 158 0.667391
TP 159 0.057201
TP 160 1.907758
TP 161 2.482532
TP 162 1.838448
TP 163 1.565574
TP 164 2.151773
TP 165 0.001707
TP 166 0.209740
TP 167 0.766282
TP 168 0.731732
TP 169 0.350438
TP 170 2.995435
TP 171 1.991797
TP 172 2.125493
TP 173 2.308056
TP 174 0.056718
TP 175 0.326008
TP 176 0.145526
TP 177 2.800335
TP 178 2.522469
TP 179 2.285243
TP 180 1.570482
TP 181 2.879324
TP 182 2.043975
TP 183 0.154471
TP 184 1.512816
TP 185 1.174020
TP 186 0.665240
TP 187 2.946703
TP 188 1.384826
TP 189 2.309784
TP 190 0.275275
TP 191 0.780803
TP 192 0.110440
TP 193 2.107038
TP 194 2.348788
TP 195 1.096895
TP 196 2.666623
TP 197 1.460307
TP 198 1.834309
TP 199 0.584904
TP 200 0.233793
END

EOF
